Version identifier: 12.10.0.0 | 2019-11-26 | 843d4de
CPXPARAM_WorkMem                                 28672
Tried aggregator 2 times.
MIP Presolve eliminated 6 rows and 0 columns.
MIP Presolve added 12 rows and 0 columns.
Aggregator did 30 substitutions.
Reduced MIP has 48 rows, 50 columns, and 200 nonzeros.
Reduced MIP has 50 binaries, 0 generals, 0 SOSs, and 0 indicators.
Presolve time = 0,00 sec. (0,37 ticks)
Found incumbent of value 36,000000 after 0,00 sec. (0,43 ticks)
Probing time = 0,00 sec. (0,13 ticks)
Tried aggregator 1 time.
Detecting symmetries...
Reduced MIP has 48 rows, 50 columns, and 200 nonzeros.
Reduced MIP has 50 binaries, 0 generals, 0 SOSs, and 0 indicators.
Presolve time = 0,00 sec. (0,16 ticks)
Probing time = 0,00 sec. (0,13 ticks)
Clique table members: 200.
MIP emphasis: balance optimality and feasibility.
MIP search method: dynamic search.
Parallel mode: deterministic, using up to 16 threads.
Root relaxation solution time = 0,00 sec. (0,07 ticks)

        Nodes                                         Cuts/
   Node  Left     Objective  IInf  Best Integer    Best Bound    ItCnt     Gap

*     0+    0                           36,0000        0,0000           100,00%
*     0+    0                           34,0000        0,0000           100,00%
*     0+    0                           33,0000        0,0000           100,00%
*     0+    0                           31,0000        0,0000           100,00%
      0     0       20,0000    33       31,0000       20,0000       10   35,48%
      0     0       21,0000    33       31,0000     Cuts: 112       34   32,26%
      0     0       22,0000    33       31,0000     Cuts: 112       62   29,03%
      0     0       22,0000    33       31,0000     Cuts: 112       76   29,03%
      0     0       22,0000    33       31,0000       Cuts: 2       77   29,03%
*     0+    0                           30,0000       22,0000            26,67%
      0     0        cutoff             30,0000       30,0000       77    0,00%
Elapsed time = 0,02 sec. (7,64 ticks, tree = 0,01 MB, solutions = 5)

Clique cuts applied:  44
Cover cuts applied:  30
Implied bound cuts applied:  28
Mixed integer rounding cuts applied:  3
Zero-half cuts applied:  11
Gomory fractional cuts applied:  3

Root node processing (before b&c):
  Real time             =    0,02 sec. (7,64 ticks)
Parallel b&c, 16 threads:
  Real time             =    0,00 sec. (0,00 ticks)
  Sync time (average)   =    0,00 sec.
  Wait time (average)   =    0,00 sec.
                          ------------
Total (root+branch&cut) =    0,02 sec. (7,64 ticks)
